
GUB cover cuts applied:  3
Clique cuts applied:  4
Cover cuts applied:  11
Implied bound cuts applied:  16
Flow cuts applied:  2
Mixed integer rounding cuts applied:  9
Zero-half cuts applied:  22

Root node processing (before b&c):
  Real time             =    0.15 sec. (96.46 ticks)
Parallel b&c, 4 threads:
  Real time             =    0.00 sec. (0.00 ticks)
  Sync time (average)   =    0.00 sec.
  Wait time (average)   =    0.00 sec.
                          ------------
Total (root+branch&cut) =    0.15 sec. (96.46 ticks)
Version identifier: 12.10.0.0 | 2019-11-26 | 843d4de
CPXPARAM_MIP_Interval                            10
CPXPARAM_MIP_Tolerances_AbsMIPGap                0.98999999999999999
Tried aggregator 2 times.
MIP Presolve eliminated 2088 rows and 964 columns.
MIP Presolve added 4 rows and 0 columns.
MIP Presolve modified 106 coefficients.
Aggregator did 11 substitutions.
Reduced MIP has 911 rows, 144 columns, and 2124 nonzeros.
Reduced MIP has 113 binaries, 31 generals, 0 SOSs, and 0 indicators.
Presolve time = 0.00 sec. (4.48 ticks)
Probing fixed 0 vars, tightened 7 bounds.
Probing time = 0.00 sec. (0.42 ticks)
Cover probing fixed 0 vars, tightened 20 bounds.
Tried aggregator 1 time.
Detecting symmetries...
MIP Presolve eliminated 636 rows and 0 columns.
MIP Presolve modified 14 coefficients.
Reduced MIP has 275 rows, 144 columns, and 852 nonzeros.
Reduced MIP has 113 binaries, 31 generals, 0 SOSs, and 0 indicators.
Presolve time = 0.00 sec. (0.94 ticks)
Probing fixed 0 vars, tightened 5 bounds.
Probing time = 0.00 sec. (0.18 ticks)
Cover probing fixed 0 vars, tightened 18 bounds.
Clique table members: 193.
MIP emphasis: balance optimality and feasibility.
MIP search method: dynamic search.
Parallel mode: deterministic, using up to 4 threads.
Root relaxation solution time = 0.00 sec. (1.46 ticks)

        Nodes                                         Cuts/
   Node  Left     Objective  IInf  Best Integer    Best Bound    ItCnt     Gap

      0     0       20.3549    62                     20.3549      165         
      0     0       20.2547    62                    Cuts: 85      304         
      0     0       20.1722    62                    Cuts: 84      396         
      0     0       20.1622    62                    Cuts: 52      432         
      0     0       20.1296    62                    Cuts: 39      466         
      0     0       20.1255    62                    Cuts: 44      494         
Detecting symmetries...
      0     0       20.0925    62                    Cuts: 35      544         
      0     0       20.0525    62                    Cuts: 30      581         
      0     0       20.0468    62                    Cuts: 24      608         
      0     0       20.0393    62                    Cuts: 27      636         
      0     0       20.0265    62                    Cuts: 31      666         
      0     0       20.0223    62                    Cuts: 19      705         
      0     0       20.0184    62                    Cuts: 37      738         
      0     0       20.0065    62                    Cuts: 16      762         
      0     0       19.9857    62                    Cuts: 32      816         
      0     0       19.9751    62                    Cuts: 42      879         
      0     0       19.9584    62                    Cuts: 51      942         
*     0+    0                           18.0000       19.9584            10.88%
      0     0       19.9312    62       18.0000      Cuts: 39      987    5.86%
      0     0       19.9178    62       18.0000      Cuts: 41     1032    5.86%
      0     0        cutoff             18.0000       18.0000     1032    0.00%
Elapsed time = 0.16 sec. (114.13 ticks, tree = 0.01 MB, solutions = 1)
the number of Nodes = 0
